data/benchmarks/bayes/75-12-2-q.cnf
p cnf 672 659
c weights 0.968461 0.031538999999999984 1 1 1 1 1 1 1 1 1 1 1 1 1 1 1 1 1 1 1 1 1 1 1 1 1 1 1 1 1 1 1 1 1 1 1 1 1 1 1 1 1 1 1 1 1 1 1 1 1 1 1 1 1 1 1 1 1 1 1 1 1 1 1 1 1 1 1 1 1 1 1 1 1 1 1 1 1 1 1 1 1 1 1 1 1 1 1 1 1 1 1 1 1 1 1 1 1 1 1 1 1 1 1 1 1 1 1 1 1 1 1 1 1 1 1 1 1 1 1 1 1 1 1 1 1 1 1 1 1 1 1 1 1 1 1 1 1 1 1 1 1 1 1 1 1 1 1 1 1 1 1 1 1 1 1 1 1 1 1 1 1 1 1 1 1 1 1 1 1 1 1 1 1 1 1 1 1 1 1 1 1 1 1 1 1 1 1 1 1 1 1 1 1 1 1 1 1 1 1 1 1 1 1 1 1 1 1 1 1 1 1 1 1 1 1 1 1 1 1 1 1 1 1 1 1 1 1 1 1 1 1 1 1 1 1 1 1 1 1 1 1 1 1 1 1 1 1 1 1 1 1 1 1 1 1 1 1 1 1 1 1 1 1 1 1 1 1 1 1 1 1 1 1 1 1 1 1 1 1 1 1 1 1 1 1 1 0.5 0.5 0.5 0.5 0.5 0.5 0.5 0.5 0.899639 0.10036100000000003 0.0317042 0.9682958 0.5 0.5 0.5 0.5 0.5 0.5 0.5 0.5 0.5 0.5 0.5 0.5 0.5 0.5 0.5 0.5 0.5 0.5 0.5 0.5 0.5 0.5 0.5 0.5 0.695938 0.30406200000000005 0.601985 0.398015 0.5 0.5 0.5 0.5 0.0595597 0.9404403 0.929079 0.07092100000000001 0.5 0.5 0.5 0.5 0.5 0.5 0.5 0.5 0.832412 0.16758799999999996 0.734976 0.26502400000000004 0.884439 0.11556100000000002 0.732051 0.267949 0.0978532 0.9021468 0.755806 0.24419400000000002 0.889688 0.11031199999999997 0.147196 0.852804 0.264577 0.7354229999999999 0.298959 0.701041 0.5649 0.43510000000000004 0.966745 0.033255000000000035 0.303099 0.696901 0.941208 0.058791999999999955 0.720904 0.279096 0.999037 0.0009630000000000472 0.5 0.5 0.5 0.5 0.5 0.5 0.5 0.5 0.5 0.5 0.5 0.5 0.5 0.5 0.5 0.5 0.5 0.5 0.5 0.5 0.5 0.5 0.5 0.5 0.5 0.5 0.5 0.5 0.5 0.5 0.5 0.5 0.869986 0.13001399999999996 0.0777911 0.9222089 0.0871134 0.9128866 0.434886 0.565114 0.5 0.5 0.5 0.5 0.5 0.5 0.5 0.5 0.5 0.5 0.5 0.5 0.5 0.5 0.5 0.5 0.5 0.5 0.5 0.5 0.5 0.5 0.5 0.5 0.5 0.5 0.5 0.5 0.5 0.5 0.5 0.5 0.5 0.5 0.5 0.5 0.5 0.5 0.5 0.5 0.5 0.5 0.5 0.5 0.5 0.5 0.5 0.5 0.5 0.5 0.5 0.5 0.5 0.5 0.5 0.5 0.5 0.5 0.5 0.5 0.5 0.5 0.5 0.5 0.5 0.5 0.5 0.5 0.5 0.5 0.5 0.5 0.5 0.5 0.5 0.5 0.5 0.5 0.5 0.5 0.5 0.5 0.5 0.5 0.5 0.5 0.5 0.5 0.5 0.5 0.5 0.5 0.5 0.5 0.5 0.5 0.5 0.5 0.5 0.5 0.5 0.5 0.5 0.5 0.883345 0.11665499999999995 0.556336 0.44366399999999995 0.559697 0.440303 0.183041 0.816959 0.5 0.5 0.5 0.5 0.5 0.5 0.5 0.5 0.249599 0.750401 0.230579 0.769421 0.443703 0.556297 0.596029 0.40397099999999997 0.5 0.5 0.5 0.5 0.5 0.5 0.5 0.5 0.5 0.5 0.5 0.5 0.5 0.5 0.5 0.5 0.5 0.5 0.5 0.5 0.5 0.5 0.5 0.5 0.5 0.5 0.5 0.5 0.5 0.5 0.5 0.5 0.5 0.5 0.5 0.5 0.5 0.5 0.5 0.5 0.589539 0.41046099999999996 0.45923 0.54077 0.0689199 0.9310801 0.0332419 0.9667581 0.5 0.5 0.5 0.5 0.5 0.5 0.5 0.5 0.6471 0.3529 0.945824 0.054176 0.120659 0.879341 0.52697 0.47302999999999995 0.5 0.5 0.5 0.5 0.5 0.5 0.5 0.5 0.5 0.5 0.5 0.5 0.5 0.5 0.5 0.5 0.5 0.5 0.5 0.5 0.609618 0.390382 0.178857 0.821143 0.600269 0.39973099999999995 0.199156 0.800844 0.5 0.5 0.5 0.5 0.5 0.5 0.5 0.5 0.5 0.5 0.5 0.5 0.5 0.5 0.5 0.5 0.5 0.5 0.5 0.5 0.5 0.5 0.5 0.5 0.5 0.5 0.5 0.5 0.5 0.5 0.5 0.5 0.139173 0.860827 0.150226 0.849774 0.16628 0.83372 0.927638 0.07236200000000004 0.5 0.5 0.5 0.5 0.5 0.5 0.5 0.5 0.5 0.5 0.5 0.5 0.5 0.5 0.5 0.5 0.5 0.5 0.5 0.5 0.5 0.5 0.5 0.5 0.5 0.5 0.5 0.5 0.5 0.5 0.5 0.5 0.5 0.5 0.5 0.5 0.5 0.5 0.5 0.5 0.5 0.5 0.5 0.5 0.133422 0.866578 0.645857 0.354143 0.906971 0.09302900000000003 0.252875 0.747125 0.5 0.5 0.5 0.5 0.5 0.5 0.5 0.5 0.5 0.5 0.5 0.5 0.5 0.5 0.5 0.5 0.5 0.5 0.5 0.5 0.5 0.5 0.5 0.5 0.5 0.5 0.5 0.5 0.5 0.5 0.5 0.5 0.5 0.5 0.5 0.5 0.5 0.5 0.5 0.5 0.5 0.5 0.5 0.5 0.5 0.5 0.5 0.5 0.5 0.5 0.5 0.5 0.5 0.5 0.5 0.5 0.5 0.5 0.5 0.5 0.5 0.5 0.5 0.5 0.5 0.5 0.5 0.5 0.271435 0.728565 0.152203 0.847797 0.757554 0.24244600000000005 0.822796 0.17720400000000003 0.5 0.5 0.5 0.5 0.5 0.5 0.5 0.5 0.924635 0.07536500000000002 0.895211 0.10478900000000002 0.610636 0.38936400000000004 0.381061 0.618939 0.503236 0.496764 0.483344 0.516656 0.796847 0.20315300000000003 0.648711 0.35128899999999996 0.5 0.5 0.5 0.5 0.5 0.5 0.5 0.5 0.5 0.5 0.5 0.5 0.5 0.5 0.5 0.5 0.5 0.5 0.5 0.5 0.5 0.5 0.5 0.5 0.5 0.5 0.5 0.5 0.5 0.5 0.5 0.5 0.121261 0.878739 0.972781 0.027218999999999993 0.39074 0.60926 0.502322 0.49767799999999995 0.893976 0.10602400000000001 0.985667 0.01433300000000004 0.662172 0.337828 0.542687 0.45731299999999997 0.5 0.5 0.5 0.5 0.5 0.5 0.5 0.5 0.5 0.5 0.5 0.5 0.248848 0.751152 0.860555 0.13944500000000004 0.387701 0.6122989999999999 0.99228 0.007719999999999949 0.0923531 0.9076469 0.493266 0.506734 0.744093 0.255907 0.341194 0.658806 0.5 0.5 0.5 0.5 0.5 0.5 0.5 0.5 0.5 0.5 0.5 0.5 0.5 0.5 0.5 0.5 0.5 0.5 0.5 0.5 0.5 0.5 0.5 0.5 0.5 0.5 0.5 0.5 0.5 0.5 0.5 0.5 0.5 0.5 0.5 0.5 0.5 0.5 0.5 0.5 0.229469 0.770531 0.876422 0.12357799999999997 0.32037 0.67963 0.973562 0.02643799999999996 0.5 0.5 0.5 0.5 0.5 0.5 0.5 0.5 0.5 0.5 0.5 0.5 0.5 0.5 0.5 0.5 0.5 0.5 0.5 0.5 0.5 0.5 0.5 0.5 0.5 0.5 0.5 0.5 0.5 0.5 0.5 0.5 0.5 0.5 0.5 0.5 0.5 0.5 0.5 0.5 0.5 0.5 0.5 0.5 0.5 0.5 0.5 0.5 0.5 0.5 0.5 0.5 0.5 0.5 0.5 0.5 0.5 0.5 0.5 0.5 0.5 0.5 0.5 0.5 0.5 0.5 0.5 0.5 0.573857 0.42614300000000005 0.740342 0.25965800000000006 0.808837 0.19116299999999997 0.062815 0.937185 0.200628 0.799372 0.112888 0.887112 0.583993 0.416007 0.0704062 0.9295938 0.5 0.5 0.5 0.5 0.5 0.5 0.5 0.5 0.5 0.5 0.5 0.5 0.5 0.5 0.5 0.5 0.185522 0.814478 0.301301 0.698699 0.414878 0.5851219999999999 0.342318 0.657682 0.440335 0.5596650000000001 0.441841 0.5581590000000001 0.866226 0.13377399999999995 0.604256 0.395744 0.5 0.5 0.5 0.5 0.5 0.5 0.5 0.5 0.5 0.5 0.5 0.5 0.5 0.5 0.5 0.5 0.5 0.5 0.5 0.5 0.5 0.5 0.5 0.5 0.5 0.5 0.5 0.5 0.5 0.5 0.5 0.5 0.5 0.5 0.5 0.5 0.5 0.5 0.5 0.5 0.5 0.5 0.5 0.5 0.7844 0.2156 0.644703 0.355297 0.0539576 0.9460424 0.444041 0.555959 0.0159503 0.9840497 0.91252 0.08748 0.0637438 0.9362562 0.847123 0.15287700000000004 0.5 0.5 0.5 0.5 0.5 0.5 0.5 0.5 0.33938 0.66062 0.0336889 0.9663111 0.870253 0.12974699999999995 0.074137 0.925863 0.5 0.5 0.5 0.5 0.5 0.5 0.5 0.5 0.576885 0.423115 0.922247 0.07775299999999996 0.375377 0.6246229999999999 0.495059 0.504941 0.207684 0.792316 0.279459 0.720541 0.5 0.5 0.5 0.5 0.5 0.5 0.5 0.5 0.5 0.5 0.5 0.5 0.5 0.5 0.5 0.5 0.5 0.5 0.5 0.5 0.5 0.5 0.5 0.5 0.5 0.5 0.5 0.5 0.5 0.5 0.5 0.5 0.5 0.5 0.5 0.5 0.5 0.5 0.5 0.5 0.5 0.5 0.5 0.5 0.5 0.5 0.5 0.5 0.5 0.5 0.5 0.5 0.5 0.5 0.5 0.5 0.5 0.5 0.5 0.5 0.5 0.5 0.5 0.5 0.5 0.5 0.5 0.5 0.5 0.5 0.5 0.5 0.5 0.5 0.5 0.5 0.5 0.5 0.5 0.5 0.5 0.5 0.5 0.5 0.5 0.5 0.5 0.5 0.67409 0.32591000000000003 0.023312 0.976688 0.5 0.5 0.5 0.5 0.5 0.5 0.5 0.5 0.5 0.5 0.5 0.5 0.5 0.5 0.5 0.5 0.544578 0.455422 0.637917 0.36208300000000004 0.475053 0.524947 0.375801 0.624199 0.5 0.5 0.5 0.5 0.5 0.5 0.5 0.5 0.5 0.5 0.5 0.5 0.5 0.5 0.5 0.5 0.5 0.5 0.5 0.5 0.5 0.5 0.5 0.5 0.527594 0.472406 0.388097 0.611903 0.156638 0.843362 0.377401 0.622599 0.5 0.5 0.5 0.5 0.5 0.5 0.5 0.5 0.5 0.5 0.5 0.5 0.5 0.5 0.5 0.5 0.5 0.5 0.5 0.5 0.5 0.5 0.5 0.5 0.5 0.5 0.5 0.5 0.5 0.5 0.5 0.5
-1 -2 0
1 2 0
-2 3 0
2 -3 0
-3 -149 4 0
-3 149 -4 0
3 -150 4 0
3 150 -4 0
-4 5 0
4 -5 0
-5 -6 0
5 6 0
-6 7 0
6 -7 0
-7 8 0
7 -8 0
-8 -9 0
8 9 0
-9 -10 0
9 10 0
-10 -163 11 0
-10 163 -11 0
10 -164 11 0
10 164 -11 0
-11 12 0
11 -12 0
-1 -167 13 0
-1 167 -13 0
1 -168 13 0
1 168 -13 0
-13 -2 -14 0
-13 2 14 0
13 -2 -14 0
13 2 14 0
-14 -3 -173 15 0
-14 -3 173 -15 0
-14 3 -174 15 0
-14 3 174 -15 0
14 -3 -175 15 0
14 -3 175 -15 0
14 3 -176 15 0
14 3 176 -15 0
-15 -4 -177 16 0
-15 -4 177 -16 0
-15 4 -178 16 0
-15 4 178 -16 0
15 -4 -179 16 0
15 -4 179 -16 0
15 4 -180 16 0
15 4 180 -16 0
-16 -5 -181 17 0
-16 -5 181 -17 0
-16 5 -182 17 0
-16 5 182 -17 0
16 -5 -183 17 0
16 -5 183 -17 0
16 5 -184 17 0
16 5 184 -17 0
-17 -6 -185 18 0
-17 -6 185 -18 0
-17 6 -186 18 0
-17 6 186 -18 0
17 -6 -187 18 0
17 -6 187 -18 0
17 6 -188 18 0
17 6 188 -18 0
-18 -7 19 0
-18 7 -19 0
18 -7 -19 0
18 7 -19 0
-19 -8 20 0
-19 8 -20 0
19 -8 -20 0
19 8 20 0
-20 -9 21 0
-20 9 21 0
20 -9 21 0
20 9 -21 0
-21 -10 22 0
-21 10 -22 0
21 -10 22 0
21 10 -22 0
-22 -11 -205 23 0
-22 -11 205 -23 0
-22 11 -206 23 0
-22 11 206 -23 0
22 -11 -207 23 0
22 -11 207 -23 0
22 11 -208 23 0
22 11 208 -23 0
-23 -12 24 0
-23 12 24 0
23 -12 -24 0
23 12 -24 0
-13 -25 0
13 25 0
-25 -14 -26 0
-25 14 -26 0
25 -14 -26 0
25 14 26 0
-26 -15 -27 0
-26 15 27 0
26 -15 27 0
26 15 -27 0
-27 -16 28 0
-27 16 28 0
27 -16 28 0
27 16 -28 0
-28 -17 -29 0
-28 17 29 0
28 -17 29 0
28 17 -29 0
-29 -18 30 0
-29 18 30 0
29 -18 -30 0
29 18 -30 0
-30 -19 31 0
-30 19 -31 0
30 -19 -31 0
30 19 31 0
-31 -20 -32 0
-31 20 -32 0
31 -20 32 0
31 20 -32 0
-32 -21 33 0
-32 21 33 0
32 -21 33 0
32 21 -33 0
-33 -22 -34 0
-33 22 -34 0
33 -22 34 0
33 22 34 0
-34 -23 -35 0
-34 23 35 0
34 -23 35 0
34 23 -35 0
-35 -24 -36 0
-35 24 36 0
35 -24 36 0
35 24 -36 0
-25 -37 0
25 37 0
-37 -26 -261 38 0
-37 -26 261 -38 0
-37 26 -262 38 0
-37 26 262 -38 0
37 -26 -263 38 0
37 -26 263 -38 0
37 26 -264 38 0
37 26 264 -38 0
-38 -27 -39 0
-38 27 39 0
38 -27 -39 0
38 27 39 0
-39 -28 -269 40 0
-39 -28 269 -40 0
-39 28 -270 40 0
-39 28 270 -40 0
39 -28 -271 40 0
39 -28 271 -40 0
39 28 -272 40 0
39 28 272 -40 0
-40 -29 41 0
-40 29 41 0
40 -29 -41 0
40 29 41 0
-41 -30 42 0
-41 30 -42 0
41 -30 42 0
41 30 -42 0
-42 -31 -43 0
-42 31 43 0
42 -31 -43 0
42 31 43 0
-43 -32 -44 0
-43 32 -44 0
43 -32 -44 0
43 32 44 0
-44 -33 -45 0
-44 33 45 0
44 -33 45 0
44 33 -45 0
-45 -34 -293 46 0
-45 -34 293 -46 0
-45 34 -294 46 0
-45 34 294 -46 0
45 -34 -295 46 0
45 -34 295 -46 0
45 34 -296 46 0
45 34 296 -46 0
-46 -35 -47 0
-46 35 47 0
46 -35 47 0
46 35 47 0
-47 -36 -301 48 0
-47 -36 301 -48 0
-47 36 -302 48 0
-47 36 302 -48 0
47 -36 -303 48 0
47 -36 303 -48 0
47 36 -304 48 0
47 36 304 -48 0
-37 -49 0
37 49 0
-49 -38 -50 0
-49 38 -50 0
49 -38 50 0
49 38 50 0
-50 -39 51 0
-50 39 -51 0
50 -39 -51 0
50 39 51 0
-51 -40 -315 52 0
-51 -40 315 -52 0
-51 40 -316 52 0
-51 40 316 -52 0
51 -40 -317 52 0
51 -40 317 -52 0
51 40 -318 52 0
51 40 318 -52 0
-52 -41 -53 0
-52 41 -53 0
52 -41 -53 0
52 41 53 0
-53 -42 54 0
-53 42 -54 0
53 -42 -54 0
53 42 -54 0
-54 -43 55 0
-54 43 -55 0
54 -43 -55 0
54 43 55 0
-55 -44 -56 0
-55 44 -56 0
55 -44 -56 0
55 44 56 0
-56 -45 -335 57 0
-56 -45 335 -57 0
-56 45 -336 57 0
-56 45 336 -57 0
56 -45 -337 57 0
56 -45 337 -57 0
56 45 -338 57 0
56 45 338 -57 0
-57 -46 -58 0
-57 46 58 0
57 -46 -58 0
57 46 -58 0
-58 -47 59 0
-58 47 59 0
58 -47 -59 0
58 47 59 0
-59 -48 -60 0
-59 48 60 0
59 -48 60 0
59 48 60 0
-49 61 0
49 -61 0
-61 -50 62 0
-61 50 -62 0
61 -50 62 0
61 50 62 0
-62 -51 63 0
-62 51 -63 0
62 -51 63 0
62 51 -63 0
-63 -52 -361 64 0
-63 -52 361 -64 0
-63 52 -362 64 0
-63 52 362 -64 0
63 -52 -363 64 0
63 -52 363 -64 0
63 52 -364 64 0
63 52 364 -64 0
-64 -53 -65 0
-64 53 65 0
64 -53 -65 0
64 53 -65 0
-65 -54 66 0
-65 54 -66 0
65 -54 66 0
65 54 -66 0
-66 -55 -67 0
-66 55 67 0
66 -55 -67 0
66 55 67 0
-67 -56 -68 0
-67 56 -68 0
67 -56 -68 0
67 56 68 0
-68 -57 -69 0
-68 57 69 0
68 -57 -69 0
68 57 -69 0
-69 -58 70 0
-69 58 -70 0
69 -58 70 0
69 58 70 0
-70 -59 71 0
-70 59 71 0
70 -59 -71 0
70 59 71 0
-71 -60 -72 0
-71 60 72 0
71 -60 -72 0
71 60 -72 0
-61 73 0
61 -73 0
-73 -62 -399 74 0
-73 -62 399 -74 0
-73 62 -400 74 0
-73 62 400 -74 0
73 -62 -401 74 0
73 -62 401 -74 0
73 62 -402 74 0
73 62 402 -74 0
-74 -63 -75 0
-74 63 75 0
74 -63 -75 0
74 63 -75 0
-75 -64 -407 76 0
-75 -64 407 -76 0
-75 64 -408 76 0
-75 64 408 -76 0
75 -64 -409 76 0
75 -64 409 -76 0
75 64 -410 76 0
75 64 410 -76 0
-76 -65 -411 77 0
-76 -65 411 -77 0
-76 65 -412 77 0
-76 65 412 -77 0
76 -65 -413 77 0
76 -65 413 -77 0
76 65 -414 77 0
76 65 414 -77 0
-77 -66 78 0
-77 66 -78 0
77 -66 -78 0
77 66 -78 0
-78 -67 -79 0
-78 67 -79 0
78 -67 -79 0
78 67 79 0
-79 -68 -80 0
-79 68 -80 0
79 -68 80 0
79 68 80 0
-80 -69 81 0
-80 69 -81 0
80 -69 81 0
80 69 -81 0
-81 -70 -431 82 0
-81 -70 431 -82 0
-81 70 -432 82 0
-81 70 432 -82 0
81 -70 -433 82 0
81 -70 433 -82 0
81 70 -434 82 0
81 70 434 -82 0
-82 -71 -435 83 0
-82 -71 435 -83 0
-82 71 -436 83 0
-82 71 436 -83 0
82 -71 -437 83 0
82 -71 437 -83 0
82 71 -438 83 0
82 71 438 -83 0
-83 -72 84 0
-83 72 -84 0
83 -72 84 0
83 72 84 0
-73 85 0
73 -85 0
-85 -74 -445 86 0
-85 -74 445 -86 0
-85 74 -446 86 0
-85 74 446 -86 0
85 -74 -447 86 0
85 -74 447 -86 0
85 74 -448 86 0
85 74 448 -86 0
-86 -75 -449 87 0
-86 -75 449 -87 0
-86 75 -450 87 0
-86 75 450 -87 0
86 -75 -451 87 0
86 -75 451 -87 0
86 75 -452 87 0
86 75 452 -87 0
-87 -76 88 0
-87 76 88 0
87 -76 88 0
87 76 -88 0
-88 -77 89 0
-88 77 89 0
88 -77 -89 0
88 77 89 0
-89 -78 -90 0
-89 78 -90 0
89 -78 90 0
89 78 90 0
-90 -79 91 0
-90 79 -91 0
90 -79 91 0
90 79 -91 0
-91 -80 92 0
-91 80 -92 0
91 -80 92 0
91 80 92 0
-92 -81 -473 93 0
-92 -81 473 -93 0
-92 81 -474 93 0
-92 81 474 -93 0
92 -81 -475 93 0
92 -81 475 -93 0
92 81 -476 93 0
92 81 476 -93 0
-93 -82 94 0
-93 82 94 0
93 -82 -94 0
93 82 -94 0
-94 -83 -95 0
-94 83 95 0
94 -83 95 0
94 83 -95 0
-95 -84 96 0
-95 84 -96 0
95 -84 96 0
95 84 -96 0
-85 97 0
85 -97 0
-97 -86 -98 0
-97 86 98 0
97 -86 -98 0
97 86 98 0
-98 -87 -99 0
-98 87 -99 0
98 -87 99 0
98 87 99 0
-99 -88 -100 0
-99 88 100 0
99 -88 100 0
99 88 100 0
-100 -89 101 0
-100 89 -101 0
100 -89 -101 0
100 89 -101 0
-101 -90 102 0
-101 90 -102 0
101 -90 -102 0
101 90 -102 0
-102 -91 -511 103 0
-102 -91 511 -103 0
-102 91 -512 103 0
-102 91 512 -103 0
102 -91 -513 103 0
102 -91 513 -103 0
102 91 -514 103 0
102 91 514 -103 0
-103 -92 -515 104 0
-103 -92 515 -104 0
-103 92 -516 104 0
-103 92 516 -104 0
103 -92 -517 104 0
103 -92 517 -104 0
103 92 -518 104 0
103 92 518 -104 0
-104 -93 -105 0
-104 93 -105 0
104 -93 -105 0
104 93 105 0
-105 -94 106 0
-105 94 -106 0
105 -94 106 0
105 94 -106 0
-106 -95 -527 107 0
-106 -95 527 -107 0
-106 95 -528 107 0
-106 95 528 -107 0
106 -95 -529 107 0
106 -95 529 -107 0
106 95 -530 107 0
106 95 530 -107 0
-107 -96 -531 108 0
-107 -96 531 -108 0
-107 96 -532 108 0
-107 96 532 -108 0
107 -96 -533 108 0
107 -96 533 -108 0
107 96 -534 108 0
107 96 534 -108 0
-97 109 0
97 -109 0
-109 -98 -110 0
-109 98 -110 0
109 -98 110 0
109 98 110 0
-110 -99 -111 0
-110 99 111 0
110 -99 -111 0
110 99 -111 0
-111 -100 112 0
-111 100 -112 0
111 -100 -112 0
111 100 112 0
-112 -101 -113 0
-112 101 -113 0
112 -101 113 0
112 101 -113 0
-113 -102 -114 0
-113 102 -114 0
113 -102 -114 0
113 102 114 0
-114 -103 -557 115 0
-114 -103 557 -115 0
-114 103 -558 115 0
-114 103 558 -115 0
114 -103 -559 115 0
114 -103 559 -115 0
114 103 -560 115 0
114 103 560 -115 0
-115 -104 -561 116 0
-115 -104 561 -116 0
-115 104 -562 116 0
-115 104 562 -116 0
115 -104 -563 116 0
115 -104 563 -116 0
115 104 -564 116 0
115 104 564 -116 0
-116 -105 117 0
-116 105 -117 0
116 -105 117 0
116 105 117 0
-117 -106 -569 118 0
-117 -106 569 -118 0
-117 106 -570 118 0
-117 106 570 -118 0
117 -106 -571 118 0
117 -106 571 -118 0
117 106 -572 118 0
117 106 572 -118 0
-118 -107 119 0
-118 107 -119 0
118 -107 -119 0
118 107 119 0
-119 -108 -577 120 0
-119 -108 577 -120 0
-119 108 -578 120 0
-119 108 578 -120 0
119 -108 -579 120 0
119 -108 579 -120 0
119 108 -580 120 0
119 108 580 -120 0
-109 -581 121 0
-109 581 -121 0
109 -582 121 0
109 582 -121 0
-121 -110 122 0
-121 110 122 0
121 -110 122 0
121 110 -122 0
-122 -111 -123 0
-122 111 -123 0
122 -111 123 0
122 111 -123 0
-123 -112 124 0
-123 112 124 0
123 -112 -124 0
123 112 124 0
-124 -113 -125 0
-124 113 125 0
124 -113 125 0
124 113 -125 0
-125 -114 -126 0
-125 114 -126 0
125 -114 -126 0
125 114 126 0
-126 -115 -127 0
-126 115 127 0
126 -115 -127 0
126 115 -127 0
-127 -116 128 0
-127 116 128 0
127 -116 128 0
127 116 -128 0
-128 -117 129 0
-128 117 -129 0
128 -117 129 0
128 117 129 0
-129 -118 130 0
-129 118 -130 0
129 -118 130 0
129 118 -130 0
-130 -119 131 0
-130 119 -131 0
130 -119 -131 0
130 119 -131 0
-131 -120 132 0
-131 120 -132 0
131 -120 -132 0
131 120 -132 0
-121 -627 133 0
-121 627 -133 0
121 -628 133 0
121 628 -133 0
-133 -122 -134 0
-133 122 -134 0
133 -122 -134 0
133 122 134 0
-134 -123 135 0
-134 123 -135 0
134 -123 135 0
134 123 135 0
-135 -124 -637 136 0
-135 -124 637 -136 0
-135 124 -638 136 0
-135 124 638 -136 0
135 -124 -639 136 0
135 -124 639 -136 0
135 124 -640 136 0
135 124 640 -136 0
-136 -125 -137 0
-136 125 -137 0
136 -125 137 0
136 125 -137 0
-137 -126 138 0
-137 126 -138 0
137 -126 -138 0
137 126 -138 0
-138 -127 -139 0
-138 127 -139 0
138 -127 139 0
138 127 -139 0
-139 -128 -653 140 0
-139 -128 653 -140 0
-139 128 -654 140 0
-139 128 654 -140 0
139 -128 -655 140 0
139 -128 655 -140 0
139 128 -656 140 0
139 128 656 -140 0
-140 -129 141 0
-140 129 -141 0
140 -129 -141 0
140 129 -141 0
-141 -130 -142 0
-141 130 -142 0
141 -130 142 0
141 130 -142 0
-142 -131 -143 0
-142 131 -143 0
142 -131 143 0
142 131 -143 0
-143 -132 -144 0
-143 132 -144 0
143 -132 -144 0
143 132 144 0
144 0
