data/benchmarks/bayes/75-12-2-q.gr
p tw 672 765
38 261
55 66
67 68
107 531
75 408
99 100
88 100
117 572
70 82
8 9
120 577
40 41
29 41
92 515
3 150
64 407
100 101
48 301
11 23
121 133
85 448
74 448
41 42
40 315
73 74
62 74
76 408
103 511
133 134
44 56
86 449
70 432
14 15
3 15
17 188
52 316
37 264
74 75
133 628
106 107
95 107
122 133
45 295
34 295
15 16
6 187
82 433
47 48
36 48
108 580
26 263
92 474
107 108
96 108
18 30
128 140
47 304
36 304
21 32
80 81
69 81
81 473
140 141
113 124
102 514
91 514
129 141
10 22
81 82
54 65
102 114
103 515
140 653
5 181
17 183
22 23
43 55
106 529
95 529
114 115
87 98
51 315
103 115
116 561
82 437
55 56
28 39
71 437
76 88
75 407
88 99
29 40
77 89
23 207
3 149
119 580
85 447
74 447
2 13
139 656
128 656
62 73
110 122
115 564
104 564
70 431
3 14
17 187
51 63
35 46
37 263
133 627
95 106
6 186
36 47
108 579
26 262
92 473
128 139
47 303
36 303
21 22
136 637
13 167
69 80
113 114
48 304
102 513
91 513
16 181
10 21
54 55
102 113
115 559
17 182
43 54
87 88
28 29
17 29
81 431
11 205
76 87
88 89
109 121
74 401
29 30
61 62
50 62
23 206
121 122
119 579
2 3
85 446
139 655
128 655
62 63
94 95
83 95
110 121
115 563
104 563
3 4
35 36
24 36
5 184
108 533
95 96
84 96
127 128
52 363
116 128
51 318
9 20
68 69
57 69
28 271
128 129
64 364
117 129
47 302
36 302
4 179
69 70
42 53
40 272
58 70
101 102
90 102
87 451
10 11
16 180
31 43
102 103
75 86
91 103
123 135
115 558
43 44
16 27
32 44
64 76
135 136
108 119
124 136
5 17
17 28
56 337
45 337
76 77
65 77
97 109
135 639
124 639
6 18
74 400
57 338
50 61
98 110
82 93
136 640
1 168
104 517
39 51
23 34
139 654
16 184
83 94
131 143
115 126
63 363
24 35
72 84
56 67
108 532
116 127
52 362
106 571
9 10
57 68
28 270
89 100
81 434
11 208
118 572
4 178
30 41
42 43
90 101
134 135
87 450
31 42
75 76
15 174
123 134
77 414
16 17
18 188
64 75
96 531
5 16
49 50
38 50
56 336
45 336
109 110
135 638
124 638
130 142
74 399
50 51
82 83
71 83
142 143
1 167
104 516
39 270
23 24
12 24
22 208
83 84
115 116
15 178
104 116
63 362
56 57
45 57
116 117
105 117
52 361
106 570
57 58
46 58
46 296
73 402
62 402
89 90
78 90
4 150
28 269
109 581
30 31
19 31
90 91
63 74
79 91
111 123
121 582
93 474
87 449
31 32
4 15
20 32
52 64
76 412
65 412
141 142
15 173
123 124
112 124
77 413
18 187
64 65
53 65
85 97
114 560
103 560
107 530
5 6
26 38
117 571
38 49
97 98
70 81
86 98
83 438
118 130
130 141
27 39
11 22
75 452
71 82
119 131
14 176
3 176
104 515
39 269
76 407
12 23
22 207
44 55
60 72
86 448
104 115
15 177
52 315
1 13
122 123
45 56
45 294
34 294
82 432
93 105
38 264
106 569
96 107
107 534
96 534
18 29
46 295
78 89
126 138
4 149
120 580
92 518
19 30
64 410
129 140
63 64
111 122
121 581
40 318
93 473
4 5
25 37
76 411
65 411
103 514
52 63
86 452
106 528
95 528
103 114
37 38
82 436
71 436
107 529
26 37
70 71
59 71
117 570
83 437
118 129
130 131
77 88
11 12
81 476
74 446
92 104
14 175
3 175
44 45
33 45
103 518
86 447
140 656
17 186
125 137
51 62
37 262
116 564
66 78
45 293
34 293
6 185
82 431
137 138
108 578
26 261
18 19
7 19
38 263
75 410
10 164
99 111
120 579
129 130
40 52
64 409
48 303
102 512
91 512
111 112
100 112
132 144
40 317
73 85
103 513
17 181
86 451
70 434
103 104
14 26
106 527
95 527
85 86
106 118
82 435
71 435
136 137
92 476
47 59
59 70
117 569
118 119
107 119
77 78
23 205
81 475
119 578
80 92
85 445
74 445
92 103
128 654
110 111
33 44
115 562
81 93
104 562
51 52
86 446
103 517
5 183
17 185
125 136
140 655
84 95
37 261
143 144
116 563
51 317
66 77
114 126
108 577
38 262
117 128
64 363
55 67
75 409
10 163
47 301
36 301
99 110
58 69
40 271
40 51
48 302
102 511
91 511
16 179
132 143
91 102
25 26
121 628
115 557
103 512
32 43
70 433
14 25
124 135
17 18
106 117
65 76
26 264
47 58
92 475
6 17
57 337
98 109
136 639
21 33
119 577
80 91
113 125
39 50
139 653
128 653
16 183
131 142
54 66
115 561
13 25
104 561
140 654
5 182
17 184
72 83
108 531
87 99
51 316
116 562
117 118
28 40
81 433
11 207
64 362
118 571
120 132
58 59
4 177
40 270
23 208
61 73
16 178
91 92
2 14
121 627
94 106
32 33
124 125
35 47
127 139
65 66
56 335
45 335
135 637
124 637
68 80
6 7
139 140
98 99
57 336
136 638
13 168
101 113
39 40
16 182
131 132
63 361
71 438
115 560
105 116
46 57
73 401
62 401
81 432
11 206
64 361
118 570
120 131
74 402
79 90
40 269
20 31
16 177
112 123
94 105
77 412
18 186
53 64
114 559
103 559
108 534
52 364
38 39
127 138
86 97
9 21
28 272
68 79
27 38
75 451
71 72
4 180
57 335
119 130
42 54
101 112
87 452
22 206
60 71
104 105
15 176
75 87
13 14
45 46
34 46
93 104
105 106
16 28
107 533
96 533
46 47
108 120
78 79
67 79
73 400
62 400
46 294
126 137
56 338
45 338
49 61
138 139
19 20
8 20
118 569
92 517
135 640
124 640
79 80
82 94
20 21
52 53
39 272
41 53
76 410
104 518
112 113
23 35
15 180
52 318
115 127
53 54
63 364
77 411
18 185
74 86
114 558
103 558
56 68
11 164
26 27
15 27
107 528
106 572
86 87
83 436
89 101
27 28
48 60
75 450
119 120
30 42
14 174
3 174
93 476
22 205
76 414
65 414
1 2
15 175
22 34
34 45
93 94
7 18
107 532
96 532
67 78
73 399
62 399
46 293
126 127
120 578
8 19
92 516
64 408
100 111
40 316
41 52
39 271
76 409
86 450
15 179
52 317
74 85
122 134
114 557
103 557
45 296
34 296
6 188
82 434
11 163
15 26
107 527
59 60
107 118
83 435
109 582
81 474
48 59
92 93
75 449
63 75
14 173
3 173
33 34
93 475
81 92
76 413
4 16
65 413
86 445
103 516
125 126
22 33
34 35
66 67
106 530
95 530
114 125
37 49
7 8
82 438
